# This is a comment. Comments start with #
SECTION_HORIZON
# All instances start on a Monday
# The horizon length in days:
42

SECTION_SHIFTS
# ShiftID_15, Length in mins, Shifts which cannot follow this shift | separated
e1_15,480,
e2_15,720,e2_15
D_15,480,e2_15
L_15,480,e1_15|e2_15|D_15
n1_15,600,e1_15|e2_15|D_15|L_15|n2_15
n2_15,720,e1_15|e2_15|D_15|L_15|n2_15

SECTION_STAFF
# ID_15, MaxShifts, MaxTotalMinutes, MinTotalMinutes, MaxConsecutiveShifts, MinConsecutiveShifts, MinConsecutiveDaysOff, MaxWeekends
A_15,e1_15=0|e2_15=14|D_15=42|L_15=0|n1_15=0|n2_15=3,12960,12240,5,2,2,3
B_15,e1_15=21|e2_15=0|D_15=42|L_15=0|n1_15=4|n2_15=0,12960,12240,5,2,2,3
C_15,e1_15=21|e2_15=0|D_15=42|L_15=0|n1_15=4|n2_15=3,12960,12240,5,2,2,3
D_15,e1_15=21|e2_15=14|D_15=42|L_15=0|n1_15=0|n2_15=3,12960,12240,5,2,2,3
E_15,e1_15=21|e2_15=0|D_15=42|L_15=0|n1_15=4|n2_15=3,12960,12240,5,2,2,3
F_15,e1_15=0|e2_15=0|D_15=42|L_15=21|n1_15=0|n2_15=0,12960,12240,5,2,2,3
G_15,e1_15=21|e2_15=14|D_15=42|L_15=21|n1_15=0|n2_15=0,12960,12240,5,2,2,3
H_15,e1_15=21|e2_15=0|D_15=42|L_15=0|n1_15=4|n2_15=0,12960,12240,5,2,2,3
I_15,e1_15=21|e2_15=14|D_15=42|L_15=21|n1_15=4|n2_15=0,12960,12240,5,2,2,3
J_15,e1_15=21|e2_15=0|D_15=42|L_15=21|n1_15=4|n2_15=3,12960,12240,5,2,2,3
K_15,e1_15=21|e2_15=14|D_15=42|L_15=21|n1_15=0|n2_15=3,12960,12240,5,2,2,3
L_15,e1_15=21|e2_15=0|D_15=42|L_15=0|n1_15=0|n2_15=0,12960,12240,5,2,2,3
M_15,e1_15=0|e2_15=14|D_15=42|L_15=21|n1_15=4|n2_15=3,12960,12240,5,2,2,3
N_15,e1_15=21|e2_15=0|D_15=42|L_15=21|n1_15=0|n2_15=3,12960,12240,5,2,2,3
O_15,e1_15=21|e2_15=14|D_15=42|L_15=21|n1_15=4|n2_15=0,12960,12240,5,2,2,3
P_15,e1_15=0|e2_15=0|D_15=42|L_15=21|n1_15=4|n2_15=0,12960,12240,5,2,2,3
Q_15,e1_15=21|e2_15=14|D_15=42|L_15=0|n1_15=0|n2_15=3,12960,12240,5,2,2,3
R_15,e1_15=21|e2_15=0|D_15=42|L_15=0|n1_15=0|n2_15=3,12960,12240,5,2,2,3
S_15,e1_15=21|e2_15=14|D_15=42|L_15=0|n1_15=4|n2_15=0,12960,12240,5,2,2,3
T_15,e1_15=21|e2_15=14|D_15=42|L_15=21|n1_15=0|n2_15=3,12960,12240,5,2,2,3
U_15,e1_15=21|e2_15=14|D_15=42|L_15=21|n1_15=0|n2_15=3,12960,12240,5,2,2,3
V_15,e1_15=21|e2_15=0|D_15=42|L_15=21|n1_15=4|n2_15=3,12960,12240,5,2,2,3
W_15,e1_15=0|e2_15=14|D_15=42|L_15=21|n1_15=0|n2_15=3,12960,12240,5,2,2,3
X_15,e1_15=0|e2_15=14|D_15=42|L_15=21|n1_15=4|n2_15=3,12960,12240,5,2,2,3
Y_15,e1_15=21|e2_15=14|D_15=42|L_15=21|n1_15=4|n2_15=0,12960,12240,5,2,2,3
Z_15,e1_15=21|e2_15=0|D_15=42|L_15=21|n1_15=0|n2_15=0,12960,12240,5,2,2,3
AA_15,e1_15=21|e2_15=14|D_15=42|L_15=0|n1_15=0|n2_15=3,12960,12240,5,2,2,3
AB_15,e1_15=0|e2_15=0|D_15=42|L_15=0|n1_15=0|n2_15=0,12960,12240,5,2,2,3
AC_15,e1_15=21|e2_15=0|D_15=42|L_15=0|n1_15=4|n2_15=3,12960,12240,5,2,2,3
AD_15,e1_15=0|e2_15=0|D_15=42|L_15=0|n1_15=0|n2_15=3,12960,12240,5,2,2,3
AE_15,e1_15=0|e2_15=12|D_15=42|L_15=19|n1_15=0|n2_15=0,11640,10920,6,2,3,3
AF_15,e1_15=0|e2_15=12|D_15=42|L_15=19|n1_15=0|n2_15=3,11640,10920,6,2,3,3
AG_15,e1_15=19|e2_15=12|D_15=42|L_15=19|n1_15=3|n2_15=0,11640,10920,6,2,3,3
AH_15,e1_15=19|e2_15=0|D_15=42|L_15=19|n1_15=3|n2_15=3,11640,10920,6,2,3,3
AI_15,e1_15=19|e2_15=12|D_15=42|L_15=0|n1_15=0|n2_15=0,11640,10920,6,2,3,3
AJ_15,e1_15=19|e2_15=12|D_15=42|L_15=0|n1_15=3|n2_15=3,11640,10920,6,2,3,3
AK_15,e1_15=0|e2_15=0|D_15=42|L_15=0|n1_15=3|n2_15=0,11640,10920,6,2,3,3
AL_15,e1_15=19|e2_15=12|D_15=42|L_15=0|n1_15=0|n2_15=3,11640,10920,6,2,3,3
AM_15,e1_15=0|e2_15=12|D_15=42|L_15=0|n1_15=3|n2_15=3,11640,10920,6,2,3,3
AN_15,e1_15=0|e2_15=0|D_15=42|L_15=19|n1_15=3|n2_15=3,11640,10920,6,2,3,3
AO_15,e1_15=12|e2_15=8|D_15=42|L_15=12|n1_15=2|n2_15=2,7740,7020,5,2,2,4
AP_15,e1_15=0|e2_15=8|D_15=42|L_15=12|n1_15=2|n2_15=2,7740,7020,5,2,2,4
AQ_15,e1_15=12|e2_15=0|D_15=42|L_15=0|n1_15=2|n2_15=2,7740,7020,5,2,2,4
AR_15,e1_15=11|e2_15=7|D_15=42|L_15=11|n1_15=2|n2_15=0,7080,6360,5,1,2,1
AS_15,e1_15=0|e2_15=7|D_15=42|L_15=0|n1_15=2|n2_15=0,7080,6360,5,1,2,1

SECTION_DAYS_OFF
# EmployeeID_15, DayIndexes (start at zero)
A_15,5,10,37,38
B_15,2,3,4,35
C_15,7,39,40,41
D_15,5,6,7,8
E_15,29,30,31,32
F_15,8,9,10,11
G_15,18,19,36,37
H_15,5,6,7,8
I_15,3,4,31,32
J_15,8,21,22,23
K_15,14,15,16,38
L_15,2,3,23,24
M_15,2,10,11,12
N_15,12,13,14,15
O_15,3,28,29,30
P_15,32,33,34,35
Q_15,6,27,28,29
R_15,12,13,14,32
S_15,7,8,9,10
T_15,1,2,3,4
U_15,5,6,7,8
V_15,12,15,16,40
W_15,29,30,31,32
X_15,6,9,13,14
Y_15,33,34,35,36
Z_15,7,10,11,12
AA_15,7,8,9,26
AB_15,19,20,30,31
AC_15,27,28,31,32
AD_15,20,21,27,28
AE_15,5,33,34,38
AF_15,20,21,22,23
AG_15,1,6,7,11
AH_15,15,16,21,34
AI_15,1,24,25,26
AJ_15,0,34,35,36
AK_15,6,30,31,32
AL_15,19,20,21,26
AM_15,25,28,29,30
AN_15,32,33,34,35
AO_15,9,10,11,29
AP_15,15,16,26,27
AQ_15,3,23,31,32
AR_15,1,13,14,16
AS_15,16,22,23,26

SECTION_SHIFT_ON_REQUESTS
# EmployeeID_15, Day, ShiftID_15, Weight
A_15,19,e2_15,2
A_15,20,e2_15,2
A_15,21,e2_15,2
A_15,22,e2_15,2
A_15,23,e2_15,2
B_15,1,e1_15,3
B_15,9,D_15,1
B_15,10,D_15,1
B_15,15,n1_15,3
B_15,16,n1_15,3
B_15,17,n1_15,3
B_15,24,n1_15,2
B_15,25,n1_15,2
C_15,12,D_15,2
C_15,13,D_15,2
C_15,14,D_15,2
C_15,20,n2_15,2
C_15,21,n2_15,2
C_15,22,n2_15,2
C_15,23,n2_15,2
C_15,27,e1_15,3
C_15,28,e1_15,3
C_15,29,e1_15,3
D_15,1,D_15,3
D_15,2,D_15,3
D_15,11,e2_15,3
D_15,12,e2_15,3
D_15,13,e2_15,3
D_15,21,e1_15,1
D_15,22,e1_15,1
D_15,23,e1_15,1
D_15,24,e1_15,1
D_15,25,e1_15,1
E_15,1,D_15,2
E_15,2,D_15,2
E_15,3,D_15,2
E_15,4,D_15,2
E_15,5,D_15,2
E_15,13,e1_15,3
E_15,14,e1_15,3
E_15,24,D_15,1
E_15,25,D_15,1
E_15,26,D_15,1
E_15,27,D_15,1
F_15,6,D_15,1
F_15,7,D_15,1
F_15,17,D_15,3
F_15,18,D_15,3
F_15,38,D_15,2
G_15,1,e2_15,1
G_15,2,e2_15,1
G_15,3,e2_15,1
G_15,4,e2_15,1
G_15,5,e2_15,1
G_15,29,D_15,1
G_15,30,D_15,1
G_15,31,D_15,1
G_15,32,D_15,1
H_15,10,e1_15,1
I_15,23,e1_15,1
I_15,24,e1_15,1
I_15,33,e2_15,3
I_15,34,e2_15,3
I_15,35,e2_15,3
J_15,10,D_15,1
J_15,11,D_15,1
J_15,12,D_15,1
J_15,13,D_15,1
J_15,14,D_15,1
K_15,0,D_15,2
K_15,19,n2_15,1
K_15,20,n2_15,1
K_15,21,n2_15,1
K_15,22,n2_15,1
L_15,8,e1_15,3
L_15,9,e1_15,3
L_15,10,e1_15,3
L_15,11,e1_15,3
L_15,12,e1_15,3
L_15,25,e1_15,1
M_15,8,n1_15,3
M_15,9,n1_15,3
M_15,13,e2_15,3
M_15,14,e2_15,3
M_15,15,e2_15,3
M_15,30,n1_15,2
M_15,31,n1_15,2
M_15,36,D_15,2
M_15,41,n2_15,3
N_15,3,D_15,2
N_15,4,D_15,2
N_15,5,D_15,2
N_15,6,D_15,2
N_15,17,e1_15,3
N_15,18,e1_15,3
N_15,19,e1_15,3
N_15,20,e1_15,3
N_15,25,e1_15,2
N_15,26,e1_15,2
N_15,27,e1_15,2
N_15,28,e1_15,2
N_15,29,e1_15,2
N_15,39,D_15,1
O_15,21,D_15,3
O_15,22,D_15,3
O_15,23,D_15,3
O_15,24,D_15,3
O_15,25,D_15,3
O_15,33,e2_15,1
O_15,34,e2_15,1
O_15,35,e2_15,1
O_15,36,e2_15,1
P_15,2,L_15,2
P_15,3,L_15,2
P_15,4,L_15,2
P_15,9,D_15,3
P_15,10,D_15,3
Q_15,2,D_15,2
Q_15,7,n2_15,3
Q_15,8,n2_15,3
Q_15,9,n2_15,3
Q_15,31,D_15,2
Q_15,32,D_15,2
Q_15,33,D_15,2
Q_15,38,e2_15,1
Q_15,39,e2_15,1
Q_15,40,e2_15,1
R_15,34,n2_15,2
R_15,35,n2_15,2
R_15,36,n2_15,2
R_15,37,n2_15,2
S_15,3,D_15,2
S_15,4,D_15,2
S_15,5,D_15,2
S_15,6,D_15,2
T_15,8,D_15,1
T_15,9,D_15,1
T_15,10,D_15,1
T_15,11,D_15,1
T_15,18,D_15,3
T_15,19,D_15,3
T_15,20,D_15,3
T_15,21,D_15,3
T_15,22,D_15,3
U_15,14,L_15,1
U_15,15,L_15,1
U_15,16,L_15,1
U_15,20,L_15,1
U_15,21,L_15,1
U_15,22,L_15,1
U_15,23,L_15,1
U_15,28,e2_15,1
V_15,7,D_15,1
V_15,8,D_15,1
V_15,17,L_15,2
V_15,18,L_15,2
V_15,19,L_15,2
V_15,20,L_15,2
V_15,21,L_15,2
V_15,33,D_15,2
V_15,34,D_15,2
V_15,35,D_15,2
V_15,36,D_15,2
W_15,0,n2_15,2
W_15,1,n2_15,2
W_15,2,n2_15,2
W_15,3,n2_15,2
W_15,4,n2_15,2
W_15,35,e2_15,1
W_15,36,e2_15,1
W_15,37,e2_15,1
X_15,4,n2_15,3
X_15,16,e2_15,1
X_15,17,e2_15,1
Y_15,3,e2_15,2
Y_15,4,e2_15,2
Y_15,5,e2_15,2
Y_15,10,n1_15,2
Y_15,11,n1_15,2
Y_15,19,e1_15,1
Y_15,20,e1_15,1
Y_15,21,e1_15,1
Y_15,22,e1_15,1
Y_15,26,e1_15,3
Y_15,27,e1_15,3
Y_15,28,e1_15,3
Y_15,29,e1_15,3
Y_15,30,e1_15,3
Z_15,0,e1_15,2
Z_15,1,e1_15,2
Z_15,2,e1_15,2
AA_15,2,n2_15,1
AA_15,3,n2_15,1
AA_15,4,n2_15,1
AA_15,5,n2_15,1
AA_15,6,n2_15,1
AA_15,14,n2_15,2
AA_15,15,n2_15,2
AA_15,16,n2_15,2
AA_15,37,n2_15,2
AA_15,38,n2_15,2
AA_15,39,n2_15,2
AA_15,40,n2_15,2
AB_15,16,D_15,1
AB_15,33,D_15,2
AB_15,34,D_15,2
AB_15,35,D_15,2
AB_15,36,D_15,2
AC_15,0,n1_15,2
AC_15,1,n1_15,2
AC_15,2,n1_15,2
AC_15,3,n1_15,2
AC_15,4,n1_15,2
AC_15,16,n1_15,1
AC_15,17,n1_15,1
AC_15,29,e1_15,1
AC_15,30,e1_15,1
AD_15,3,D_15,1
AD_15,13,D_15,3
AD_15,14,D_15,3
AD_15,29,D_15,3
AD_15,30,D_15,3
AD_15,31,D_15,3
AD_15,32,D_15,3
AD_15,33,D_15,3
AD_15,40,D_15,1
AD_15,41,D_15,1
AE_15,0,L_15,3
AE_15,1,L_15,3
AE_15,2,L_15,3
AE_15,3,L_15,3
AE_15,8,D_15,3
AE_15,9,D_15,3
AE_15,10,D_15,3
AE_15,28,L_15,2
AE_15,29,L_15,2
AE_15,30,L_15,2
AF_15,2,n2_15,2
AF_15,15,e2_15,1
AF_15,16,e2_15,1
AF_15,17,e2_15,1
AF_15,18,e2_15,1
AG_15,12,e1_15,1
AG_15,13,e1_15,1
AG_15,19,D_15,2
AG_15,31,D_15,2
AG_15,32,D_15,2
AG_15,33,D_15,2
AG_15,34,D_15,2
AG_15,35,D_15,2
AH_15,6,n2_15,1
AH_15,17,n1_15,1
AH_15,24,e1_15,3
AH_15,25,e1_15,3
AH_15,26,e1_15,3
AH_15,27,e1_15,3
AH_15,28,e1_15,3
AH_15,35,n2_15,1
AH_15,36,n2_15,1
AH_15,37,n2_15,1
AH_15,38,n2_15,1
AI_15,3,e1_15,2
AI_15,4,e1_15,2
AI_15,5,e1_15,2
AI_15,6,e1_15,2
AI_15,7,e1_15,2
AI_15,11,D_15,2
AI_15,12,D_15,2
AI_15,13,D_15,2
AI_15,14,D_15,2
AI_15,36,e1_15,2
AI_15,37,e1_15,2
AI_15,38,e1_15,2
AJ_15,5,e2_15,2
AJ_15,6,e2_15,2
AJ_15,7,e2_15,2
AJ_15,8,e2_15,2
AJ_15,15,n2_15,3
AJ_15,16,n2_15,3
AJ_15,22,n2_15,2
AJ_15,23,n2_15,2
AJ_15,24,n2_15,2
AJ_15,25,n2_15,2
AK_15,10,D_15,3
AK_15,14,n1_15,1
AK_15,18,D_15,3
AK_15,19,D_15,3
AK_15,36,D_15,1
AK_15,37,D_15,1
AK_15,38,D_15,1
AL_15,6,D_15,1
AL_15,14,e1_15,2
AL_15,15,e1_15,2
AL_15,27,n2_15,3
AL_15,28,n2_15,3
AL_15,29,n2_15,3
AL_15,30,n2_15,3
AL_15,34,e2_15,2
AL_15,35,e2_15,2
AL_15,36,e2_15,2
AL_15,37,e2_15,2
AL_15,38,e2_15,2
AM_15,19,e2_15,2
AM_15,20,e2_15,2
AN_15,40,D_15,3
AN_15,41,D_15,3
AO_15,3,n1_15,3
AO_15,4,n1_15,3
AO_15,5,n1_15,3
AO_15,6,n1_15,3
AO_15,31,e1_15,2
AO_15,32,e1_15,2
AO_15,33,e1_15,2
AP_15,0,L_15,1
AP_15,1,L_15,1
AP_15,2,L_15,1
AP_15,3,L_15,1
AP_15,4,L_15,1
AP_15,25,n2_15,1
AP_15,32,L_15,1
AP_15,33,L_15,1
AP_15,34,L_15,1
AP_15,35,L_15,1
AP_15,40,L_15,1
AP_15,41,L_15,1
AQ_15,5,D_15,3
AQ_15,6,D_15,3
AQ_15,7,D_15,3
AQ_15,8,D_15,3
AQ_15,9,D_15,3
AQ_15,16,n2_15,3
AR_15,17,e1_15,1
AR_15,24,e2_15,2
AR_15,25,e2_15,2
AR_15,26,e2_15,2
AR_15,27,e2_15,2
AR_15,32,n1_15,3
AR_15,33,n1_15,3
AR_15,34,n1_15,3
AR_15,35,n1_15,3
AR_15,36,n1_15,3
AR_15,41,n1_15,1
AS_15,3,n1_15,1
AS_15,4,n1_15,1
AS_15,5,n1_15,1
AS_15,6,n1_15,1
AS_15,7,n1_15,1
AS_15,28,D_15,3
AS_15,29,D_15,3
AS_15,30,D_15,3

SECTION_SHIFT_OFF_REQUESTS
# EmployeeID_15, Day, ShiftID_15, Weight
A_15,3,n2_15,1
A_15,4,n2_15,1
A_15,13,D_15,1
A_15,14,D_15,1
A_15,28,e2_15,1
A_15,29,e2_15,1
C_15,1,n1_15,2
E_15,35,n2_15,1
E_15,36,n2_15,1
F_15,23,D_15,3
F_15,24,D_15,3
F_15,25,D_15,3
F_15,31,L_15,3
F_15,32,L_15,3
G_15,22,e1_15,2
G_15,23,e1_15,2
G_15,24,e1_15,2
H_15,16,e1_15,1
H_15,17,e1_15,1
H_15,18,e1_15,1
H_15,19,e1_15,1
H_15,23,e1_15,2
H_15,24,e1_15,2
H_15,25,e1_15,2
H_15,33,n1_15,1
H_15,34,n1_15,1
H_15,35,n1_15,1
J_15,1,n2_15,3
J_15,2,n2_15,3
J_15,3,n2_15,3
J_15,4,n2_15,3
J_15,38,n2_15,1
K_15,30,e1_15,2
M_15,23,n2_15,1
M_15,24,n2_15,1
M_15,25,n2_15,1
N_15,33,L_15,2
P_15,18,n1_15,3
P_15,19,n1_15,3
P_15,26,L_15,3
P_15,37,L_15,3
P_15,38,L_15,3
P_15,39,L_15,3
P_15,40,L_15,3
P_15,41,L_15,3
Q_15,13,n2_15,2
R_15,8,D_15,3
R_15,9,D_15,3
R_15,10,D_15,3
R_15,11,D_15,3
R_15,23,n2_15,3
R_15,24,n2_15,3
R_15,25,n2_15,3
S_15,13,n1_15,3
S_15,14,n1_15,3
S_15,15,n1_15,3
S_15,16,n1_15,3
S_15,28,e1_15,2
S_15,29,e1_15,2
T_15,27,n2_15,3
T_15,28,n2_15,3
T_15,29,n2_15,3
W_15,12,D_15,1
X_15,22,n2_15,2
X_15,23,n2_15,2
X_15,24,n2_15,2
X_15,25,n2_15,2
X_15,37,n1_15,3
X_15,38,n1_15,3
X_15,39,n1_15,3
X_15,40,n1_15,3
X_15,41,n1_15,3
Y_15,37,e1_15,3
Y_15,38,e1_15,3
Y_15,39,e1_15,3
Y_15,40,e1_15,3
Z_15,16,D_15,2
Z_15,17,D_15,2
Z_15,18,D_15,2
Z_15,19,D_15,2
Z_15,20,D_15,2
Z_15,24,D_15,1
Z_15,25,D_15,1
Z_15,26,D_15,1
Z_15,39,D_15,1
Z_15,40,D_15,1
AA_15,30,D_15,2
AA_15,31,D_15,2
AB_15,0,D_15,3
AB_15,5,D_15,2
AB_15,6,D_15,2
AC_15,9,n1_15,1
AC_15,10,n1_15,1
AC_15,11,n1_15,1
AE_15,18,D_15,3
AE_15,19,D_15,3
AE_15,20,D_15,3
AE_15,21,D_15,3
AF_15,9,e2_15,1
AF_15,10,e2_15,1
AF_15,11,e2_15,1
AF_15,29,n2_15,3
AF_15,30,n2_15,3
AF_15,31,n2_15,3
AG_15,0,e2_15,2
AG_15,27,D_15,2
AH_15,0,D_15,3
AH_15,1,D_15,3
AI_15,20,e2_15,1
AI_15,21,e2_15,1
AI_15,22,e2_15,1
AI_15,23,e2_15,1
AK_15,0,D_15,1
AK_15,1,D_15,1
AK_15,2,D_15,1
AM_15,7,n2_15,3
AM_15,8,n2_15,3
AM_15,9,n2_15,3
AM_15,10,n2_15,3
AM_15,11,n2_15,3
AM_15,33,n2_15,1
AM_15,34,n2_15,1
AM_15,35,n2_15,1
AM_15,36,n2_15,1
AN_15,16,n1_15,1
AN_15,17,n1_15,1
AN_15,18,n1_15,1
AO_15,12,e1_15,3
AO_15,13,e1_15,3
AO_15,24,e2_15,1
AO_15,25,e2_15,1
AP_15,9,n2_15,2
AQ_15,41,n2_15,1
AS_15,11,n1_15,2
AS_15,12,n1_15,2
AS_15,13,n1_15,2
AS_15,14,n1_15,2
AS_15,35,n1_15,1
AS_15,36,n1_15,1
AS_15,37,n1_15,1

SECTION_COVER
# Day, ShiftID_15, Requirement, Weight for under, Weight for over
0,e1_15,8,100,1
0,e2_15,7,100,1
0,D_15,9,100,1
0,L_15,8,100,1
0,n1_15,4,100,1
0,n2_15,3,100,1
1,e1_15,8,100,1
1,e2_15,4,100,1
1,D_15,8,100,1
1,L_15,8,100,1
1,n1_15,2,100,1
1,n2_15,2,100,1
2,e1_15,7,100,1
2,e2_15,5,100,1
2,D_15,7,100,1
2,L_15,7,100,1
2,n1_15,3,100,1
2,n2_15,3,100,1
3,e1_15,7,100,1
3,e2_15,4,100,1
3,D_15,7,100,1
3,L_15,7,100,1
3,n1_15,4,100,1
3,n2_15,3,100,1
4,e1_15,9,100,1
4,e2_15,5,100,1
4,D_15,7,100,1
4,L_15,6,100,1
4,n1_15,4,100,1
4,n2_15,3,100,1
5,e1_15,9,100,1
5,e2_15,5,100,1
5,D_15,9,100,1
5,L_15,7,100,1
5,n1_15,3,100,1
5,n2_15,3,100,1
6,e1_15,8,100,1
6,e2_15,7,100,1
6,D_15,7,100,1
6,L_15,6,100,1
6,n1_15,3,100,1
6,n2_15,3,100,1
7,e1_15,8,100,1
7,e2_15,4,100,1
7,D_15,9,100,1
7,L_15,7,100,1
7,n1_15,4,100,1
7,n2_15,3,100,1
8,e1_15,8,100,1
8,e2_15,4,100,1
8,D_15,6,100,1
8,L_15,5,100,1
8,n1_15,4,100,1
8,n2_15,4,100,1
9,e1_15,5,100,1
9,e2_15,4,100,1
9,D_15,7,100,1
9,L_15,8,100,1
9,n1_15,4,100,1
9,n2_15,3,100,1
10,e1_15,7,100,1
10,e2_15,2,100,1
10,D_15,6,100,1
10,L_15,5,100,1
10,n1_15,4,100,1
10,n2_15,2,100,1
11,e1_15,6,100,1
11,e2_15,2,100,1
11,D_15,5,100,1
11,L_15,6,100,1
11,n1_15,3,100,1
11,n2_15,3,100,1
12,e1_15,5,100,1
12,e2_15,4,100,1
12,D_15,6,100,1
12,L_15,8,100,1
12,n1_15,3,100,1
12,n2_15,3,100,1
13,e1_15,7,100,1
13,e2_15,3,100,1
13,D_15,5,100,1
13,L_15,7,100,1
13,n1_15,2,100,1
13,n2_15,3,100,1
14,e1_15,4,100,1
14,e2_15,4,100,1
14,D_15,7,100,1
14,L_15,4,100,1
14,n1_15,3,100,1
14,n2_15,3,100,1
15,e1_15,6,100,1
15,e2_15,3,100,1
15,D_15,6,100,1
15,L_15,5,100,1
15,n1_15,3,100,1
15,n2_15,2,100,1
16,e1_15,8,100,1
16,e2_15,5,100,1
16,D_15,6,100,1
16,L_15,6,100,1
16,n1_15,3,100,1
16,n2_15,3,100,1
17,e1_15,7,100,1
17,e2_15,4,100,1
17,D_15,6,100,1
17,L_15,7,100,1
17,n1_15,2,100,1
17,n2_15,3,100,1
18,e1_15,8,100,1
18,e2_15,4,100,1
18,D_15,7,100,1
18,L_15,5,100,1
18,n1_15,3,100,1
18,n2_15,4,100,1
19,e1_15,6,100,1
19,e2_15,2,100,1
19,D_15,6,100,1
19,L_15,6,100,1
19,n1_15,3,100,1
19,n2_15,2,100,1
20,e1_15,5,100,1
20,e2_15,4,100,1
20,D_15,6,100,1
20,L_15,5,100,1
20,n1_15,3,100,1
20,n2_15,1,100,1
21,e1_15,3,100,1
21,e2_15,4,100,1
21,D_15,5,100,1
21,L_15,7,100,1
21,n1_15,3,100,1
21,n2_15,1,100,1
22,e1_15,5,100,1
22,e2_15,3,100,1
22,D_15,3,100,1
22,L_15,5,100,1
22,n1_15,3,100,1
22,n2_15,4,100,1
23,e1_15,6,100,1
23,e2_15,3,100,1
23,D_15,5,100,1
23,L_15,5,100,1
23,n1_15,4,100,1
23,n2_15,2,100,1
24,e1_15,4,100,1
24,e2_15,3,100,1
24,D_15,5,100,1
24,L_15,4,100,1
24,n1_15,3,100,1
24,n2_15,3,100,1
25,e1_15,4,100,1
25,e2_15,3,100,1
25,D_15,3,100,1
25,L_15,5,100,1
25,n1_15,2,100,1
25,n2_15,2,100,1
26,e1_15,3,100,1
26,e2_15,4,100,1
26,D_15,3,100,1
26,L_15,4,100,1
26,n1_15,2,100,1
26,n2_15,1,100,1
27,e1_15,4,100,1
27,e2_15,3,100,1
27,D_15,4,100,1
27,L_15,3,100,1
27,n1_15,1,100,1
27,n2_15,2,100,1
28,e1_15,3,100,1
28,e2_15,3,100,1
28,D_15,4,100,1
28,L_15,4,100,1
28,n1_15,2,100,1
28,n2_15,2,100,1
29,e1_15,2,100,1
29,e2_15,2,100,1
29,D_15,5,100,1
29,L_15,3,100,1
29,n1_15,1,100,1
29,n2_15,2,100,1
30,e1_15,2,100,1
30,e2_15,2,100,1
30,D_15,4,100,1
30,L_15,4,100,1
30,n1_15,1,100,1
30,n2_15,2,100,1
31,e1_15,4,100,1
31,e2_15,3,100,1
31,D_15,4,100,1
31,L_15,2,100,1
31,n1_15,1,100,1
31,n2_15,3,100,1
32,e1_15,3,100,1
32,e2_15,1,100,1
32,D_15,4,100,1
32,L_15,3,100,1
32,n1_15,1,100,1
32,n2_15,2,100,1
33,e1_15,4,100,1
33,e2_15,1,100,1
33,D_15,3,100,1
33,L_15,3,100,1
33,n1_15,3,100,1
33,n2_15,0,100,1
34,e1_15,4,100,1
34,e2_15,2,100,1
34,D_15,3,100,1
34,L_15,3,100,1
34,n1_15,2,100,1
34,n2_15,3,100,1
35,e1_15,1,100,1
35,e2_15,3,100,1
35,D_15,2,100,1
35,L_15,2,100,1
35,n1_15,2,100,1
35,n2_15,1,100,1
36,e1_15,1,100,1
36,e2_15,0,100,1
36,D_15,2,100,1
36,L_15,1,100,1
36,n1_15,1,100,1
36,n2_15,1,100,1
37,e1_15,1,100,1
37,e2_15,0,100,1
37,D_15,2,100,1
37,L_15,1,100,1
37,n1_15,0,100,1
37,n2_15,2,100,1
38,e1_15,3,100,1
38,e2_15,2,100,1
38,D_15,2,100,1
38,L_15,2,100,1
38,n1_15,1,100,1
38,n2_15,1,100,1
39,e1_15,4,100,1
39,e2_15,0,100,1
39,D_15,1,100,1
39,L_15,1,100,1
39,n1_15,3,100,1
39,n2_15,1,100,1
40,e1_15,0,100,1
40,e2_15,1,100,1
40,D_15,2,100,1
40,L_15,1,100,1
40,n1_15,0,100,1
40,n2_15,0,100,1
41,e1_15,1,100,1
41,e2_15,1,100,1
41,D_15,-0,100,1
41,L_15,1,100,1
41,n1_15,1,100,1
41,n2_15,-0,100,1
